proyfinal/src/viki/013/experimentInOfficeAgust.take6.output/55351d46-2ef4-4b7a-a220-3405c7362a13.als.out
Reading from standard input... Use '--help' for help.
============================[ Problem Statistics ]=============================
|                                                                             |
|  Number of variables:         87638                                         |
|  Number of clauses:          161767                                         |
|  Parse time:                   0.04 s                                       |
|                                                                             |
============================[ Search Statistics ]==============================
| Conflicts |          ORIGINAL         |          LEARNT          | Progress |
|           |    Vars  Clauses Literals |    Limit  Clauses Lit/Cl |          |
===============================================================================
|       100 |   63981   110874   277002 |    40653      100     13 | 26.994 % |
|       250 |   63980   110830   276912 |    44719      249     50 | 26.995 % |
|       475 |   63980   110830   276912 |    49191      474     79 | 26.995 % |
|       812 |   63980   110830   276912 |    54110      811     69 | 26.995 % |
|      1318 |   63980   110830   276912 |    59521     1317     61 | 26.995 % |
|      2077 |   63940   110664   276530 |    65473     2073     83 | 27.041 % |
|      3216 |   63940   110664   276530 |    72020     3212     86 | 27.041 % |
|      4924 |   54709    82558   207382 |    79222     4675     86 | 37.574 % |
|      7486 |   54592    82237   206591 |    87145     7129     89 | 37.707 % |
|     11330 |   53727    78804   198303 |    95859    10535     81 | 38.694 % |
|     17096 |   53375    77497   195105 |   105445    15646     80 | 39.096 % |
===============================================================================
restarts              : 88
conflicts             : 24016          (7029 /sec)
decisions             : 83486          (0.00 % random) (24436 /sec)
propagations          : 32975669       (9651674 /sec)
conflict literals     : 1781290        (43.88 % deleted)
Memory used           : 40.37 MB
CPU time              : 3.41657 s

INDETERMINATE
